solution status: optimal solution found
objective value:                                93136
x#210#180#30#40                                     1 	(obj:1200)
x#210#280#30#40                                     1 	(obj:1200)
x#210#220#30#40                                     1 	(obj:1200)
x#210#330#30#40                                     1 	(obj:1200)
x#104#0#30#40                                       1 	(obj:1200)
x#120#416#55#104                                    1 	(obj:5720)
x#36#80#30#40                                       1 	(obj:1200)
x#80#104#104#55                                     1 	(obj:5720)
x#90#160#36#254                                     1 	(obj:9144)
x#40#160#36#254                                     1 	(obj:9144)
x#40#0#40#30                                        1 	(obj:1200)
x#0#254#36#254                                      1 	(obj:9144)
x#0#0#36#254                                        1 	(obj:9144)
x#200#110#40#30                                     1 	(obj:1200)
x#180#390#55#104                                    1 	(obj:5720)
x#180#0#55#104                                      1 	(obj:5720)
x#55#416#55#104                                     1 	(obj:5720)
x#150#160#55#104                                    1 	(obj:5720)
x#150#0#30#40                                       1 	(obj:1200)
x#150#275#55#104                                    1 	(obj:5720)
x#72#40#104#55                                      1 	(obj:5720)
